WARNING: for repeatability, setting FPU to use double precision
============================[ Problem Statistics ]=============================
|                                                                             |
|  Number of variables:           250                                         |
|  Number of clauses:            1065                                         |
|  Parse time:                   0.00 s                                       |
subsumption left:       1064 (         0 subsumed,          0 deleted literals)subsumption left:         64 (         0 subsumed,          0 deleted literals)elimination left:        249elimination left:        149elimination left:        113elimination left:        116elimination left:        103elimination left:        101elimination left:         93elimination left:         99elimination left:         93elimination left:         89elimination left:         84elimination left:         72elimination left:         76elimination left:         68elimination left:         65elimination left:         74elimination left:         63elimination left:         69elimination left:         58elimination left:         66elimination left:         82elimination left:         58elimination left:         63elimination left:         50elimination left:         42elimination left:         60elimination left:         70elimination left:         49elimination left:         36elimination left:         55elimination left:         34elimination left:         54elimination left:         80elimination left:         28elimination left:         31elimination left:         96elimination left:         48elimination left:         43|  Garbage collection:        4696700 bytes =>      2729184 bytes             |
|  Eliminated clauses:           0.02 Mb                                      |
|  Simplification time:        267.17 s                                       |
|                                                                             |
============================[ Search Statistics ]==============================
| Conflicts |          ORIGINAL         |          LEARNT          | Progress |
|           |    Vars  Clauses Literals |    Limit  Clauses Lit/Cl |          |
===============================================================================
===============================================================================
restarts              : 1
conflicts             : 0              (0 /sec)
decisions             : 0              (-nan % random) (0 /sec)
propagations          : 176801808      (661749 /sec)
conflict literals     : 0              (-nan % deleted)
Memory used           : 29.00 MB
CPU time              : 267.174 s

INDETERMINATE
